language Essence 1.3

$ bivincular mixed mesh
letting length be 7

$ mesh_avoidance = permutation + mesh pieces + bivincular indeces
$letting mesh_avoidance be {(sequence(1,3,2), relation((0,0),(1,0),(2,0),(3,0),(1,1),(1,2),(1,3),(0,2),(2,2),(3,2),(2,3))}

letting mixed_avoidance be {( sequence(1,3,2), relation( (2,3) ), {1}, {0,2} )}
